c
c Renamed file of unreg.cnf 
c Variables are renamed according to left2right.ord 
c
c Date: Thu Apr 29 14:50:39 PDT 2004 by (jinbo)
c Host: Linux solution 2.4.18-4smp #1 SMP Thu May 2 18:32:34 EDT 2002 i686 unknown
c
c Copyright (c) 2001 Fadi A. Aloul.
c
p cnf 149 336
-82 -54 0
37 -54 0
54 82 -37 0
-54 53 0
-57 -52 0
-37 -52 0
52 57 37 0
-52 53 0
-53 54 52 0
-78 -36 0
37 -36 0
36 78 -37 0
-36 34 0
-47 -35 0
-37 -35 0
35 47 37 0
-35 34 0
-34 36 35 0
-101 -31 0
37 -31 0
31 101 -37 0
-31 30 0
-33 -32 0
-37 -32 0
32 33 37 0
-32 30 0
-30 31 32 0
-145 -64 0
37 -64 0
64 145 -37 0
-64 63 0
-65 -62 0
-37 -62 0
62 65 37 0
-62 63 0
-63 64 62 0
-105 -49 0
37 -49 0
49 105 -37 0
-49 50 0
-55 -51 0
-37 -51 0
51 55 37 0
-51 50 0
-50 49 51 0
-113 -46 0
37 -46 0
46 113 -37 0
-46 45 0
-48 -44 0
-37 -44 0
44 48 37 0
-44 45 0
-45 46 44 0
-69 -40 0
37 -40 0
40 69 -37 0
-40 39 0
-56 -38 0
-37 -38 0
38 56 37 0
-38 39 0
-39 40 38 0
-109 -29 0
37 -29 0
29 109 -37 0
-29 26 0
-28 -27 0
-37 -27 0
27 28 37 0
-27 26 0
-26 29 27 0
-136 -59 0
37 -59 0
59 136 -37 0
-59 60 0
-66 -61 0
-37 -61 0
61 66 37 0
-61 60 0
-60 59 61 0
-90 -43 0
37 -43 0
43 90 -37 0
-43 42 0
-58 -41 0
-37 -41 0
41 58 37 0
-41 42 0
-42 43 41 0
-140 -25 0
37 -25 0
25 140 -37 0
-25 22 0
-24 -23 0
-37 -23 0
23 24 37 0
-23 22 0
-22 25 23 0
-67 -12 0
37 -12 0
12 67 -37 0
-12 10 0
-13 -11 0
-37 -11 0
11 13 37 0
-11 10 0
-10 12 11 0
-88 -5 0
37 -5 0
5 88 -37 0
-5 4 0
-2 -3 0
-37 -3 0
3 2 37 0
-3 4 0
-4 5 3 0
-117 -8 0
37 -8 0
8 117 -37 0
-8 6 0
-9 -7 0
-37 -7 0
7 9 37 0
-7 6 0
-6 8 7 0
-86 -21 0
37 -21 0
21 86 -37 0
-21 18 0
-20 -19 0
-37 -19 0
19 20 37 0
-19 18 0
-18 21 19 0
-75 -17 0
37 -17 0
17 75 -37 0
-17 14 0
-16 -15 0
-37 -15 0
15 16 37 0
-15 14 0
-14 17 15 0
129 -123 0
123 -129 0
-123 82 0
-84 -83 0
-95 -83 0
83 84 95 0
-83 82 0
95 -81 0
47 -81 0
81 -95 -47 0
-81 82 0
-82 123 83 81 0
129 -122 0
122 -129 0
-122 78 0
-79 -80 0
-95 -80 0
80 79 95 0
-80 78 0
95 -77 0
33 -77 0
77 -95 -33 0
-77 78 0
-78 122 80 77 0
129 -125 0
125 -129 0
-125 101 0
-103 -102 0
-95 -102 0
102 103 95 0
-102 101 0
95 -98 0
65 -98 0
98 -95 -65 0
-98 101 0
-101 125 102 98 0
129 -144 0
144 -129 0
-144 145 0
-148 -147 0
95 -147 0
147 148 -95 0
-147 145 0
-149 -146 0
-95 -146 0
146 149 95 0
-146 145 0
-145 144 147 146 0
129 -126 0
126 -129 0
-126 105 0
-107 -106 0
-95 -106 0
106 107 95 0
-106 105 0
95 -104 0
48 -104 0
104 -95 -48 0
-104 105 0
-105 126 106 104 0
129 -128 0
128 -129 0
-128 113 0
-115 -114 0
-95 -114 0
114 115 95 0
-114 113 0
95 -112 0
56 -112 0
112 -95 -56 0
-112 113 0
-113 128 114 112 0
129 -121 0
121 -129 0
-121 69 0
-73 -74 0
-95 -74 0
74 73 95 0
-74 69 0
95 -70 0
28 -70 0
70 -95 -28 0
-70 69 0
-69 121 74 70 0
129 -127 0
127 -129 0
-127 109 0
-111 -110 0
-95 -110 0
110 111 95 0
-110 109 0
95 -108 0
57 -108 0
108 -95 -57 0
-108 109 0
-109 127 110 108 0
129 -135 0
135 -129 0
-135 136 0
-142 -137 0
-95 -137 0
137 142 95 0
-137 136 0
95 -134 0
58 -134 0
134 -95 -58 0
-134 136 0
-136 135 137 134 0
129 -124 0
124 -129 0
-124 90 0
-97 -96 0
-95 -96 0
96 97 95 0
-96 90 0
95 -89 0
24 -89 0
89 -95 -24 0
-89 90 0
-90 124 96 89 0
129 -139 0
139 -129 0
-139 140 0
-143 -141 0
-95 -141 0
141 143 95 0
-141 140 0
95 -138 0
13 -138 0
138 -95 -13 0
-138 140 0
-140 139 141 138 0
129 -130 0
130 -129 0
-130 67 0
-72 -71 0
-95 -71 0
71 72 95 0
-71 67 0
95 -68 0
55 -68 0
68 -95 -55 0
-68 67 0
-67 130 71 68 0
129 -120 0
120 -129 0
-120 88 0
-92 -91 0
-95 -91 0
91 92 95 0
-91 88 0
95 -87 0
9 -87 0
87 -95 -9 0
-87 88 0
-88 120 91 87 0
129 -133 0
133 -129 0
-133 117 0
-119 -118 0
-95 -118 0
118 119 95 0
-118 117 0
95 -116 0
20 -116 0
116 -95 -20 0
-116 117 0
-117 133 118 116 0
129 -132 0
132 -129 0
-132 86 0
-94 -93 0
-95 -93 0
93 94 95 0
-93 86 0
95 -85 0
16 -85 0
85 -95 -16 0
-85 86 0
-86 132 93 85 0
129 -131 0
131 -129 0
-131 75 0
-100 -99 0
-95 -99 0
99 100 95 0
-99 75 0
95 -76 0
66 -76 0
76 -95 -66 0
-76 75 0
-75 131 99 76 0
